99894 107441 656 930
99979 108115 672 931
99788 107949 719 932
99786 107459 656 933
99983 107996 797 934
99717 108579 703 935
99983 108872 672 936
99841 107116 687 937
99767 108323 625 938
99741 108233 610 939
99277 107859 671 940
99875 108824 672 941
99943 107644 703 942
99961 108305 657 943
99964 108144 750 944
99729 107317 625 945
99955 107645 703 946
99980 107559 625 947
99937 106998 625 948
99635 108113 735 949
99915 107920 687 950
99857 108645 688 951
99974 107529 656 952
99904 107931 656 953
99674 107383 625 954
99947 107987 610 955
99526 107201 672 956
99806 107964 703 957
100000 108393 687 958
99849 108351 735 959
